Ti16
1.0
   2.9357319230673751   -5.0848368481545796    0.0000000000000000
   2.9357319230673751    5.0848368481545796    0.0000000000000000
   0.0000000000000000    0.0000000000000000    9.2817123000000006
Ti
16
direct
   0.1666666666666667    0.3333333333333333    0.1250000000000000
   0.1666666666666667    0.3333333333333333    0.6250000000000000
   0.1666666666666667    0.8333333333333333    0.1250000000000000
   0.1666666666666667    0.8333333333333333    0.6250000000000000
   0.6666666666666666    0.3333333333333333    0.1250000000000000
   0.6666666666666666    0.3333333333333333    0.6250000000000000
   0.6666666666666666    0.8333333333333333    0.1250000000000000
   0.6666666666666666    0.8333333333333333    0.6250000000000000
   0.3333333333333334    0.1666666666666667    0.3750000000000000
   0.3333333333333334    0.1666666666666667    0.8750000000000000
   0.3333333333333334    0.6666666666666667    0.3750000000000000
   0.3333333333333334    0.6666666666666667    0.8750000000000000
   0.8333333333333334    0.1666666666666667    0.3750000000000000
   0.8333333333333334    0.1666666666666667    0.8750000000000000
   0.8333333333333334    0.6666666666666667    0.3750000000000000
   0.8333333333333334    0.6666666666666667    0.8750000000000000
