W16
1.0
   6.3406311202142165    0.0000000000000000    0.0000000000000004
   0.0000000000000010    6.3406311202142165    0.0000000000000004
   0.0000000000000000    0.0000000000000000    6.3406311202142165
W
16
direct
   0.0000000000000000    0.0000000000000000    0.0000000000000000
   0.0000000000000000    0.0000000000000000    0.5000000000000000
   0.0000000000000000    0.5000000000000000    0.0000000000000000
   0.0000000000000000    0.5000000000000000    0.5000000000000000
   0.5000000000000000    0.0000000000000000    0.0000000000000000
   0.5000000000000000    0.0000000000000000    0.5000000000000000
   0.5000000000000000    0.5000000000000000    0.0000000000000000
   0.5000000000000000    0.5000000000000000    0.5000000000000000
   0.2500000000000000    0.2500000000000000    0.2500000000000000
   0.2500000000000000    0.2500000000000000    0.7500000000000000
   0.2500000000000000    0.7500000000000000    0.2500000000000000
   0.2500000000000000    0.7500000000000000    0.7500000000000000
   0.7500000000000000    0.2500000000000000    0.2500000000000000
   0.7500000000000000    0.2500000000000000    0.7500000000000000
   0.7500000000000000    0.7500000000000000    0.2500000000000000
   0.7500000000000000    0.7500000000000000    0.7500000000000000
