Ta4
1.0
   4.1718116077264353    0.0000000000000000    0.0000000000000003
   0.0000000000000007    4.1718116077264353    0.0000000000000003
   0.0000000000000000    0.0000000000000000    4.1718116077264353
Ta
4
direct
   0.0000000000000000    0.0000000000000000    0.0000000000000000 Ta0+
   0.0000000000000000    0.5000000000000000    0.5000000000000000 Ta0+
   0.5000000000000000    0.0000000000000000    0.5000000000000000 Ta0+
   0.5000000000000000    0.5000000000000000    0.0000000000000000 Ta0+
