Ta
 1.0000000000000000
     8.3436232154528707    0.0000000000000000    0.0000000000000006
     0.0000000000000014    8.3436232154528707    0.0000000000000006
     0.0000000000000000    0.0000000000000000    8.3436232154528707
 Ta 
  32
Direct
  0.0000000000000000  0.0000000000000000  0.0000000000000000
  0.0000000000000000  0.2500000000000000  0.2500000000000000
  0.2500000000000000  0.0000000000000000  0.2500000000000000
  0.2500000000000000  0.2500000000000000 -0.0000000000000000
  0.0000000000000000  0.0000000000000000  0.5000000000000000
  0.0000000000000000  0.2500000000000000  0.7500000000000000
  0.2500000000000000  0.0000000000000000  0.7500000000000000
  0.2500000000000000  0.2500000000000000  0.5000000000000000
  0.0000000000000000  0.5000000000000000 -0.0000000000000000
  0.0000000000000000  0.7500000000000000  0.2500000000000000
  0.2500000000000000  0.5000000000000000  0.2500000000000000
  0.2500000000000001  0.7500000000000000 -0.0000000000000000
  0.0000000000000000  0.5000000000000000  0.5000000000000000
  0.0000000000000000  0.7500000000000000  0.7499999999999999
  0.2500000000000000  0.5000000000000000  0.7499999999999999
  0.2500000000000001  0.7500000000000000  0.4999999999999999
  0.5000000000000000  0.0000000000000000 -0.0000000000000000
  0.5000000000000000  0.2500000000000000  0.2500000000000000
  0.7500000000000000  0.0000000000000000  0.2500000000000000
  0.7500000000000001  0.2500000000000000 -0.0000000000000000
  0.5000000000000000  0.0000000000000000  0.5000000000000000
  0.5000000000000000  0.2500000000000000  0.7499999999999999
  0.7500000000000000  0.0000000000000000  0.7499999999999999
  0.7500000000000001  0.2500000000000000  0.4999999999999999
  0.5000000000000000  0.5000000000000000 -0.0000000000000000
  0.5000000000000000  0.7500000000000000  0.2500000000000000
  0.7500000000000001  0.5000000000000000  0.2500000000000000
  0.7500000000000001  0.7500000000000000  0.0000000000000000
  0.5000000000000000  0.5000000000000000  0.5000000000000000
  0.5000000000000000  0.7500000000000000  0.7500000000000001
  0.7500000000000001  0.5000000000000000  0.7500000000000001
  0.7500000000000001  0.7500000000000000  0.5000000000000000
